NAME          DCAP_2_4_3_300_SS170
ROWS
 N  OBJ
 L  CON1
 L  CON2
 L  CON3
 L  CON4
 L  CON5
 L  CON6
 L  CON7
 L  CON8
 L  CON9
 L  CON10
 L  CON11
 L  CON12
 E  CON13
 E  CON14
 E  CON15
 E  CON16
 E  CON17
 E  CON18
 E  CON19
 E  CON20
 E  CON21
 E  CON22
 E  CON23
 E  CON24
COLUMNS
    x[1,1]    OBJ       6.180167      CON1      1.000000    
    x[1,1]    CON7      -1.000000     CON8      -1.000000   
    x[1,1]    CON9      -1.000000   
    x[1,2]    OBJ       6.563535      CON2      1.000000    
    x[1,2]    CON8      -1.000000     CON9      -1.000000   
    x[1,3]    OBJ       7.443064      CON3      1.000000    
    x[1,3]    CON9      -1.000000   
    x[2,1]    OBJ       6.732585      CON4      1.000000    
    x[2,1]    CON10     -1.000000     CON11     -1.000000   
    x[2,1]    CON12     -1.000000   
    x[2,2]    OBJ       5.039546      CON5      1.000000    
    x[2,2]    CON11     -1.000000     CON12     -1.000000   
    x[2,3]    OBJ       6.054841      CON6      1.000000    
    x[2,3]    CON12     -1.000000   
    MARKER    'MARKER'                'INTORG'
    u[1,1]    OBJ       48.076654     CON1      -1.000000   
    u[1,2]    OBJ       20.066487     CON2      -1.000000   
    u[1,3]    OBJ       32.230043     CON3      -1.000000   
    u[2,1]    OBJ       49.996186     CON4      -1.000000   
    u[2,2]    OBJ       49.466655     CON5      -1.000000   
    u[2,3]    OBJ       27.484319     CON6      -1.000000   
    y[1,1,1]  OBJ       8.544622      CON7      0.613733    
    y[1,1,1]  CON13     1.000000    
    y[1,1,2]  OBJ       7.373457      CON8      1.313307    
    y[1,1,2]  CON14     1.000000    
    y[1,1,3]  OBJ       6.125114      CON9      1.273182    
    y[1,1,3]  CON15     1.000000    
    y[1,2,1]  OBJ       8.163622      CON7      1.349599    
    y[1,2,1]  CON16     1.000000    
    y[1,2,2]  OBJ       9.583102      CON8      1.271901    
    y[1,2,2]  CON17     1.000000    
    y[1,2,3]  OBJ       8.931020      CON9      1.239161    
    y[1,2,3]  CON18     1.000000    
    y[1,3,1]  OBJ       6.578834      CON7      1.008311    
    y[1,3,1]  CON19     1.000000    
    y[1,3,2]  OBJ       8.859237      CON8      0.579649    
    y[1,3,2]  CON20     1.000000    
    y[1,3,3]  OBJ       6.555853      CON9      0.578991    
    y[1,3,3]  CON21     1.000000    
    y[1,4,1]  OBJ       8.222576      CON7      0.585493    
    y[1,4,1]  CON22     1.000000    
    y[1,4,2]  OBJ       5.556517      CON8      1.427808    
    y[1,4,2]  CON23     1.000000    
    y[1,4,3]  OBJ       6.824545      CON9      1.030867    
    y[1,4,3]  CON24     1.000000    
    y[2,1,1]  OBJ       7.230075      CON10     0.613733    
    y[2,1,1]  CON13     1.000000    
    y[2,1,2]  OBJ       9.350038      CON11     1.313307    
    y[2,1,2]  CON14     1.000000    
    y[2,1,3]  OBJ       5.311280      CON12     1.273182    
    y[2,1,3]  CON15     1.000000    
    y[2,2,1]  OBJ       6.616517      CON10     1.349599    
    y[2,2,1]  CON16     1.000000    
    y[2,2,2]  OBJ       8.041575      CON11     1.271901    
    y[2,2,2]  CON17     1.000000    
    y[2,2,3]  OBJ       5.613923      CON12     1.239161    
    y[2,2,3]  CON18     1.000000    
    y[2,3,1]  OBJ       7.128608      CON10     1.008311    
    y[2,3,1]  CON19     1.000000    
    y[2,3,2]  OBJ       8.329530      CON11     0.579649    
    y[2,3,2]  CON20     1.000000    
    y[2,3,3]  OBJ       9.153008      CON12     0.578991    
    y[2,3,3]  CON21     1.000000    
    y[2,4,1]  OBJ       7.456477      CON10     0.585493    
    y[2,4,1]  CON22     1.000000    
    y[2,4,2]  OBJ       6.954143      CON11     1.427808    
    y[2,4,2]  CON23     1.000000    
    y[2,4,3]  OBJ       5.520926      CON12     1.030867    
    y[2,4,3]  CON24     1.000000    
    z[1,1]    OBJ       618.618386    CON13     1.000000    
    z[1,2]    OBJ       721.138536    CON14     1.000000    
    z[1,3]    OBJ       868.683669    CON15     1.000000    
    z[2,1]    OBJ       754.629974    CON16     1.000000    
    z[2,2]    OBJ       694.715633    CON17     1.000000    
    z[2,3]    OBJ       735.683767    CON18     1.000000    
    z[3,1]    OBJ       967.124053    CON19     1.000000    
    z[3,2]    OBJ       678.168681    CON20     1.000000    
    z[3,3]    OBJ       885.611700    CON21     1.000000    
    z[4,1]    OBJ       998.796252    CON22     1.000000    
    z[4,2]    OBJ       631.394500    CON23     1.000000    
    z[4,3]    OBJ       878.468904    CON24     1.000000    
    MARKER    'MARKER'                 'INTEND'
RHS
    RHS       CON1      -0.000000     CON2      -0.000000   
    RHS       CON3      -0.000000     CON4      -0.000000   
    RHS       CON5      -0.000000     CON6      -0.000000   
    RHS       CON7      -0.000000     CON8      -0.000000   
    RHS       CON9      -0.000000     CON10     -0.000000   
    RHS       CON11     -0.000000     CON12     -0.000000   
    RHS       CON13     1.000000      CON14     1.000000    
    RHS       CON15     1.000000      CON16     1.000000    
    RHS       CON17     1.000000      CON18     1.000000    
    RHS       CON19     1.000000      CON20     1.000000    
    RHS       CON21     1.000000      CON22     1.000000    
    RHS       CON23     1.000000      CON24     1.000000    
BOUNDS
 BV BOUND     u[1,1]  
 BV BOUND     u[1,2]  
 BV BOUND     u[1,3]  
 BV BOUND     u[2,1]  
 BV BOUND     u[2,2]  
 BV BOUND     u[2,3]  
 BV BOUND     y[1,1,1]
 BV BOUND     y[1,1,2]
 BV BOUND     y[1,1,3]
 BV BOUND     y[1,2,1]
 BV BOUND     y[1,2,2]
 BV BOUND     y[1,2,3]
 BV BOUND     y[1,3,1]
 BV BOUND     y[1,3,2]
 BV BOUND     y[1,3,3]
 BV BOUND     y[1,4,1]
 BV BOUND     y[1,4,2]
 BV BOUND     y[1,4,3]
 BV BOUND     y[2,1,1]
 BV BOUND     y[2,1,2]
 BV BOUND     y[2,1,3]
 BV BOUND     y[2,2,1]
 BV BOUND     y[2,2,2]
 BV BOUND     y[2,2,3]
 BV BOUND     y[2,3,1]
 BV BOUND     y[2,3,2]
 BV BOUND     y[2,3,3]
 BV BOUND     y[2,4,1]
 BV BOUND     y[2,4,2]
 BV BOUND     y[2,4,3]
 BV BOUND     z[1,1]  
 BV BOUND     z[1,2]  
 BV BOUND     z[1,3]  
 BV BOUND     z[2,1]  
 BV BOUND     z[2,2]  
 BV BOUND     z[2,3]  
 BV BOUND     z[3,1]  
 BV BOUND     z[3,2]  
 BV BOUND     z[3,3]  
 BV BOUND     z[4,1]  
 BV BOUND     z[4,2]  
 BV BOUND     z[4,3]  
ENDATA
